(declare-fun temp2469_2 () (_ BitVec 64))
(declare-fun temp2469_1 () (_ BitVec 64))
(declare-fun temp2469_4 () (_ BitVec 64))
(declare-fun temp2469_3 () (_ BitVec 64))
(declare-fun temp2469_6 () (_ BitVec 64))
(declare-fun temp2469_5 () (_ BitVec 64))
(declare-fun temp2469_8 () (_ BitVec 64))
(declare-fun temp2469_7 () (_ BitVec 64))
(declare-fun temp2469_10 () (_ BitVec 64))
(declare-fun temp2469_9 () (_ BitVec 64))
(declare-fun temp2469_11 () (_ BitVec 64))
(declare-fun var2363642 () (_ BitVec 64))
(declare-fun var2363650 () (_ BitVec 64))
(declare-fun temp2469_12 () (_ BitVec 64))
(declare-fun var3679322 () (_ BitVec 64))
(declare-fun temp2469_13 () (_ BitVec 64))
(assert (= temp2469_2 #x0000000000000000))
(assert (= temp2469_1 temp2469_2))
(assert (= temp2469_4 #x0000000000000000))
(assert (= temp2469_3 temp2469_4))
(assert (= temp2469_6 #x0000000000000000))
(assert (= temp2469_5 temp2469_6))
(assert (= temp2469_8 #x000000000000002b))
(assert (= temp2469_7 temp2469_8))
(assert (= temp2469_10 #x0000000000000001))
(assert (= temp2469_9 temp2469_10))
(assert (= temp2469_11 #x0000000000000001))
(assert (= var2363642 temp2469_11))
(assert (= var2363650 var2363642))
(assert (= temp2469_12 #x0000000000000000))
(assert (= var3679322 temp2469_12))
(assert (= temp2469_13 #x0000000000000000))
(assert (or false (= var3679322 temp2469_13)))
(model-add temp2469_2 () (_ BitVec 64) #x0000000000000000)
(model-add temp2469_1 () (_ BitVec 64) #x0000000000000000)
(model-add temp2469_4 () (_ BitVec 64) #x0000000000000000)
(model-add temp2469_3 () (_ BitVec 64) #x0000000000000000)
(model-add temp2469_6 () (_ BitVec 64) #x0000000000000000)
(model-add temp2469_5 () (_ BitVec 64) #x0000000000000000)
(model-add temp2469_8 () (_ BitVec 64) #x000000000000002b)
(model-add temp2469_7 () (_ BitVec 64) #x000000000000002b)
(model-add temp2469_10 () (_ BitVec 64) #x0000000000000001)
(model-add temp2469_9 () (_ BitVec 64) #x0000000000000001)
(model-add temp2469_11 () (_ BitVec 64) #x0000000000000001)
(model-add var2363642 () (_ BitVec 64) #x0000000000000001)
(model-add var2363650 () (_ BitVec 64) #x0000000000000001)
(model-add temp2469_12 () (_ BitVec 64) #x0000000000000000)
(model-add var3679322 () (_ BitVec 64) #x0000000000000000)
(model-add temp2469_13 () (_ BitVec 64) #x0000000000000000)





